proyfinal/src/viki/013/experimentInOfficeAgust.take6.output/c11c4d94-827c-4ba4-a45a-4eb3672c32b2.als.dat
{'cnf.clauses': '118081',
 'cnf.totvars': '69608',
 'conflict literals': '255',
 'conflicts': '59',
 'decisions': '7767',
 'memused.mb': '14.57',
 'outcome': 'UNSAT',
 'propagations': '70394',
 'restarts': '1',
 'solver.msecs': 30,
 'task.msecs': 119}
