proyfinal/src/viki/013/experimentInOfficeAgust.take6.output/c11c4d94-827c-4ba4-a45a-4eb3672c32b2.als.out
Reading from standard input... Use '--help' for help.
============================[ Problem Statistics ]=============================
|                                                                             |
|  Number of variables:         69608                                         |
|  Number of clauses:          118081                                         |
|  Parse time:                   0.02 s                                       |
|                                                                             |
============================[ Search Statistics ]==============================
| Conflicts |          ORIGINAL         |          LEARNT          | Progress |
|           |    Vars  Clauses Literals |    Limit  Clauses Lit/Cl |          |
===============================================================================
===============================================================================
restarts              : 1
conflicts             : 59             (1910 /sec)
decisions             : 7767           (0.00 % random) (251375 /sec)
propagations          : 70394          (2278270 /sec)
conflict literals     : 255            (14.14 % deleted)
Memory used           : 14.57 MB
CPU time              : 0.030898 s

UNSATISFIABLE
